* ENCODING=ISO-8859-1
NAME          CPLEX
ROWS
 N  obj1    
 G  c1      
 G  c2      
 G  c3      
 G  c4      
 G  c5      
 G  c6      
 G  c7      
 G  c8      
 G  c9      
 G  c10     
 G  c11     
 G  c12     
 G  c13     
 G  c14     
 G  c15     
 G  c16     
 G  c17     
 G  c18     
 G  c19     
 G  c20     
 G  c21     
 G  c22     
 G  c23     
 G  c24     
 G  c25     
 G  c26     
 G  c27     
 G  c28     
 G  c29     
 G  c30     
COLUMNS
    MARK0000  'MARKER'                 'INTORG'
    x1        obj1                            1
    x1        c5                            429
    x1        c9                            706
    x1        c15                           198
    x1        c17                           561
    x1        c18                           115
    x1        c23                           105
    x2        obj1                            1
    x2        c11                           974
    x2        c14                           340
    x3        obj1                            1
    x3        c5                            149
    x3        c8                            534
    x3        c21                           620
    x4        obj1                            1
    x4        c28                           787
    x4        c30                           828
    x5        obj1                            1
    x5        c6                            246
    x5        c11                           291
    x5        c27                           848
    x6        obj1                            1
    x6        c2                            534
    x6        c5                            266
    x6        c14                           331
    x7        obj1                            1
    x7        c16                           431
    x8        obj1                            1
    x8        c1                            695
    x8        c17                           627
    x8        c22                           475
    x9        obj1                            1
    x9        c13                           706
    x9        c22                           147
    x10       obj1                            1
    x10       c7                            572
    x10       c12                           185
    x10       c13                           383
    x10       c14                           709
    x10       c18                           305
    x10       c19                           335
    x10       c27                           290
    x11       obj1                            1
    x11       c11                           618
    x11       c13                           523
    x11       c23                           110
    x11       c26                           162
    x11       c30                           248
    x12       obj1                            1
    x13       obj1                            1
    x13       c2                            750
    x13       c5                            652
    x13       c10                           604
    x13       c22                           788
    x13       c30                           247
    x14       obj1                            1
    x14       c12                           820
    x14       c17                           879
    x15       obj1                            1
    x15       c16                           423
    x16       obj1                            1
    x16       c7                            708
    x16       c11                           660
    x17       obj1                            1
    x17       c26                           518
    x17       c30                           513
    x18       obj1                            1
    x18       c6                            659
    x18       c17                           424
    x18       c22                           907
    x18       c27                           695
    x19       obj1                            1
    x19       c1                            116
    x19       c5                            434
    x19       c19                           484
    x19       c21                           325
    x19       c28                           122
    x20       obj1                            1
    x20       c11                           425
    x20       c17                           232
    x20       c25                           534
    x21       obj1                            1
    x21       c15                           689
    x21       c19                           256
    x21       c26                           984
    x21       c30                           862
    x22       obj1                            1
    x23       obj1                            1
    x23       c4                            708
    x23       c5                            163
    x23       c18                           236
    x23       c20                           584
    x23       c22                           781
    x24       obj1                            1
    x24       c2                            853
    x24       c13                           412
    x24       c14                           901
    x24       c15                           926
    x24       c22                           985
    x24       c27                           964
    x25       obj1                            1
    x25       c6                            248
    x25       c14                           751
    x25       c24                           306
    x26       obj1                            1
    x26       c6                            274
    x26       c29                           722
    x27       obj1                            1
    x27       c10                           139
    x27       c23                           367
    x27       c27                           305
    x28       obj1                            1
    x28       c8                            953
    x28       c16                           174
    x28       c25                           943
    x28       c26                           409
    x28       c29                           394
    x28       c30                           350
    x29       obj1                            1
    x29       c10                           122
    x29       c28                           436
    x30       obj1                            1
    x30       c7                            195
    x30       c9                            642
    x30       c14                           910
    x31       obj1                            1
    x31       c9                            477
    x31       c15                           675
    x32       obj1                            1
    x32       c8                            171
    x32       c12                           939
    x32       c16                           961
    x33       obj1                            1
    x33       c3                            201
    x33       c7                            710
    x33       c8                            636
    x33       c10                           991
    x33       c13                           170
    x33       c19                           972
    x33       c25                           516
    x33       c28                           159
    x33       c29                           868
    x34       obj1                            1
    x34       c3                            129
    x34       c9                            564
    x34       c23                           390
    x35       obj1                            1
    x35       c14                           828
    x35       c20                           909
    x35       c27                           742
    x36       obj1                            1
    x36       c5                            821
    x37       obj1                            1
    x37       c11                           230
    x37       c28                           980
    x37       c29                           699
    x38       obj1                            1
    x38       c8                            118
    x38       c10                           610
    x38       c25                           577
    x38       c29                           205
    x39       obj1                            1
    x39       c1                            449
    x39       c4                            938
    x39       c6                            455
    x39       c8                            917
    x39       c11                           123
    x39       c24                           940
    x39       c29                           724
    x40       obj1                            1
    x40       c1                            943
    x40       c7                            438
    x40       c22                           775
    x41       obj1                            1
    x41       c2                            685
    x41       c10                           742
    x41       c11                           938
    x41       c19                           186
    x41       c29                           182
    x42       obj1                            1
    x42       c1                            750
    x43       obj1                            1
    x43       c1                            750
    x43       c3                            576
    x44       obj1                            1
    x44       c10                           195
    x44       c14                           182
    x44       c27                           254
    x45       obj1                            1
    x45       c13                           377
    x45       c20                           373
    x45       c23                           513
    x46       obj1                            1
    x46       c6                            674
    x46       c15                           809
    x47       obj1                            1
    x47       c29                           351
    x48       obj1                            1
    x48       c20                           602
    x48       c22                           793
    x48       c23                           605
    x48       c28                           315
    x48       c30                           606
    x49       obj1                            1
    x49       c4                            381
    x49       c7                            717
    x49       c8                            432
    x49       c11                           916
    x50       obj1                            1
    x50       c6                            569
    x50       c14                           729
    x50       c19                           564
    x50       c21                           419
    x50       c23                           281
    x50       c24                           262
    x50       c26                           544
    x51       obj1                            1
    x51       c12                           175
    x51       c20                           747
    x51       c22                           966
    x51       c30                           926
    x52       obj1                            1
    x52       c9                            330
    x52       c20                           537
    x53       obj1                            1
    x53       c2                            411
    x53       c13                           457
    x53       c17                           965
    x53       c26                           221
    x54       obj1                            1
    x54       c3                            739
    x54       c16                           982
    x55       obj1                            1
    x55       c8                            853
    x55       c13                           851
    x55       c19                           532
    x55       c21                           842
    x56       obj1                            1
    x56       c1                            141
    x56       c19                           896
    x56       c28                           774
    x57       obj1                            1
    x57       c13                           788
    x57       c15                           969
    x57       c29                           762
    x58       obj1                            1
    x58       c5                            618
    x58       c19                           344
    x59       obj1                            1
    x59       c2                            444
    x59       c6                            619
    x59       c7                            756
    x59       c16                           902
    x59       c23                           859
    x59       c24                           267
    x60       obj1                            1
    x60       c12                           508
    x60       c15                           671
    MARK0001  'MARKER'                 'INTEND'
RHS
    rhs       c1                           1922
    rhs       c2                           1839
    rhs       c3                            823
    rhs       c4                           1014
    rhs       c5                           1766
    rhs       c6                           1872
    rhs       c7                           2048
    rhs       c8                           2307
    rhs       c9                           1360
    rhs       c10                          1702
    rhs       c11                          2588
    rhs       c12                          1314
    rhs       c13                          2334
    rhs       c14                          2841
    rhs       c15                          2469
    rhs       c16                          1937
    rhs       c17                          1844
    rhs       c18                           328
    rhs       c19                          2285
    rhs       c20                          1876
    rhs       c21                          1103
    rhs       c22                          3309
    rhs       c23                          1615
    rhs       c24                           888
    rhs       c25                          1285
    rhs       c26                          1419
    rhs       c27                          2049
    rhs       c28                          1787
    rhs       c29                          2454
    rhs       c30                          2290
BOUNDS
 LI bnd       x1        0
 LI bnd       x2        0
 LI bnd       x3        0
 LI bnd       x4        0
 LI bnd       x5        0
 LI bnd       x6        0
 LI bnd       x7        0
 LI bnd       x8        0
 LI bnd       x9        0
 LI bnd       x10       0
 LI bnd       x11       0
 LI bnd       x12       0
 LI bnd       x13       0
 LI bnd       x14       0
 LI bnd       x15       0
 LI bnd       x16       0
 LI bnd       x17       0
 LI bnd       x18       0
 LI bnd       x19       0
 LI bnd       x20       0
 LI bnd       x21       0
 LI bnd       x22       0
 LI bnd       x23       0
 LI bnd       x24       0
 LI bnd       x25       0
 LI bnd       x26       0
 LI bnd       x27       0
 LI bnd       x28       0
 LI bnd       x29       0
 LI bnd       x30       0
 LI bnd       x31       0
 LI bnd       x32       0
 LI bnd       x33       0
 LI bnd       x34       0
 LI bnd       x35       0
 LI bnd       x36       0
 LI bnd       x37       0
 LI bnd       x38       0
 LI bnd       x39       0
 LI bnd       x40       0
 LI bnd       x41       0
 LI bnd       x42       0
 LI bnd       x43       0
 LI bnd       x44       0
 LI bnd       x45       0
 LI bnd       x46       0
 LI bnd       x47       0
 LI bnd       x48       0
 LI bnd       x49       0
 LI bnd       x50       0
 LI bnd       x51       0
 LI bnd       x52       0
 LI bnd       x53       0
 LI bnd       x54       0
 LI bnd       x55       0
 LI bnd       x56       0
 LI bnd       x57       0
 LI bnd       x58       0
 LI bnd       x59       0
 LI bnd       x60       0
ENDATA
